11
0 49 44 67 28 69 47 16 38 52 53
49 0 13 27 40 29 46 58 39 65 54
44 13 0 80 28 42 87 88 73 45 44
67 27 80 0 93 9 84 32 10 80 67
28 40 28 93 0 75 51 47 44 70 38
69 29 42 9 75 0 3 71 67 20 75
47 46 87 84 51 3 0 29 56 65 22
16 58 88 32 47 71 29 0 53 82 73
38 39 73 10 44 67 56 53 0 56 70
52 65 45 80 70 20 65 82 56 0 66
53 54 44 67 38 75 22 73 70 66 0
